32      4       
13      14      11      20      
0       0       0       0       0       2       2       7       
3       13      0       1       0       1       3       
10      9       0       0       1       1       4       
4       0       0       1       2       1       5       
5       1       0       1       0       2       6       12      
5       0       0       1       13      1       8       
1       0       1       9       0       1       8       
3       1       11      0       0       1       9       
2       5       3       0       0       1       10      
10      0       6       1       0       1       11      
8       0       4       10      0       1       13      
5       0       0       1       7       1       13      
9       1       0       0       6       1       14      
7       1       1       0       0       1       15      
3       0       0       1       1       2       16      20      
7       0       1       0       2       2       17      23      
7       4       0       3       0       1       18      
6       2       0       0       7       1       19      
9       0       1       1       0       2       21      31      
6       0       1       0       1       2       22      31      
9       0       1       0       1       1       22      
5       1       0       3       0       2       24      30      
5       1       0       0       4       2       24      30      
7       4       0       0       11      1       25      
3       1       1       0       0       1       26      
2       0       0       1       1       1       27      
6       0       6       0       9       1       28      
9       4       2       0       0       1       29      
7       1       0       1       0       1       32      
7       0       5       0       9       1       32      
9       0       9       6       0       1       32      
0       0       0       0       0       0       
